NAME    gk_model                                                                  
ROWS                                                                              
 N      total_xp_obj                                                              
 L      lineup_or_bench[11]                                                       
 L      lineup_or_bench[24]                                                       
 L      lineup_or_bench[27]                                                       
 L      lineup_or_bench[60]                                                       
 L      lineup_or_bench[68]                                                       
 L      lineup_or_bench[78]                                                       
 L      lineup_or_bench[101]                                                      
 L      lineup_or_bench[108]                                                      
 L      lineup_or_bench[129]                                                      
 L      lineup_or_bench[139]                                                      
 L      lineup_or_bench[156]                                                      
 L      lineup_or_bench[180]                                                      
 L      lineup_or_bench[185]                                                      
 L      lineup_or_bench[206]                                                      
 L      lineup_or_bench[217]                                                      
 L      lineup_or_bench[237]                                                      
 L      lineup_or_bench[271]                                                      
 L      lineup_or_bench[294]                                                      
 L      lineup_or_bench[321]                                                      
 L      lineup_or_bench[337]                                                      
 L      lineup_or_bench[364]                                                      
 L      lineup_or_bench[382]                                                      
 L      lineup_or_bench[399]                                                      
 L      lineup_or_bench[404]                                                      
 L      lineup_or_bench[416]                                                      
 L      lineup_or_bench[436]                                                      
 L      lineup_or_bench[448]                                                      
 L      lineup_or_bench[449]                                                      
 L      lineup_or_bench[476]                                                      
 L      lineup_or_bench[490]                                                      
 L      lineup_or_bench[502]                                                      
 E      single_lineup                                                             
 E      single_bench                                                              
 L      budget_con                                                                
COLUMNS                                                                           
        lineup[11]           total_xp_obj         -21.00 lineup_or_bench[11]   1.0
        lineup[11]           single_lineup          1.00 budget_con           49.0
        lineup[24]           total_xp_obj         -15.90 lineup_or_bench[24]   1.0
        lineup[24]           single_lineup          1.00 budget_con           49.0
        lineup[27]           total_xp_obj          -2.30 lineup_or_bench[27]   1.0
        lineup[27]           single_lineup          1.00 budget_con           39.0
        lineup[60]           total_xp_obj          -6.00 lineup_or_bench[60]   1.0
        lineup[60]           single_lineup          1.00 budget_con           42.0
        lineup[68]           total_xp_obj         -10.40 lineup_or_bench[68]   1.0
        lineup[68]           single_lineup          1.00 budget_con           45.0
        lineup[78]           total_xp_obj         -22.70 lineup_or_bench[78]   1.0
        lineup[78]           single_lineup          1.00 budget_con           48.0
        lineup[101]          total_xp_obj          -1.50 lineup_or_bench[101]  1.0
        lineup[101]          single_lineup          1.00 budget_con           39.0
        lineup[108]          total_xp_obj         -17.60 lineup_or_bench[108]  1.0
        lineup[108]          single_lineup          1.00 budget_con           46.0
        lineup[129]          total_xp_obj         -17.90 lineup_or_bench[129]  1.0
        lineup[129]          single_lineup          1.00 budget_con           47.0
        lineup[139]          total_xp_obj          -4.80 lineup_or_bench[139]  1.0
        lineup[139]          single_lineup          1.00 budget_con           48.0
        lineup[156]          total_xp_obj         -21.40 lineup_or_bench[156]  1.0
        lineup[156]          single_lineup          1.00 budget_con           44.0
        lineup[180]          total_xp_obj          -2.30 lineup_or_bench[180]  1.0
        lineup[180]          single_lineup          1.00 budget_con           39.0
        lineup[185]          total_xp_obj         -17.50 lineup_or_bench[185]  1.0
        lineup[185]          single_lineup          1.00 budget_con           44.0
        lineup[206]          total_xp_obj         -22.40 lineup_or_bench[206]  1.0
        lineup[206]          single_lineup          1.00 budget_con           45.0
        lineup[217]          total_xp_obj          -1.60 lineup_or_bench[217]  1.0
        lineup[217]          single_lineup          1.00 budget_con           43.0
        lineup[237]          total_xp_obj         -22.20 lineup_or_bench[237]  1.0
        lineup[237]          single_lineup          1.00 budget_con           40.0
        lineup[271]          total_xp_obj         -17.80 lineup_or_bench[271]  1.0
        lineup[271]          single_lineup          1.00 budget_con           45.0
        lineup[294]          total_xp_obj         -21.70 lineup_or_bench[294]  1.0
        lineup[294]          single_lineup          1.00 budget_con           54.0
        lineup[321]          total_xp_obj         -17.00 lineup_or_bench[321]  1.0
        lineup[321]          single_lineup          1.00 budget_con           54.0
        lineup[337]          total_xp_obj         -19.20 lineup_or_bench[337]  1.0
        lineup[337]          single_lineup          1.00 budget_con           50.0
        lineup[364]          total_xp_obj          -2.00 lineup_or_bench[364]  1.0
        lineup[364]          single_lineup          1.00 budget_con           41.0
        lineup[382]          total_xp_obj         -19.60 lineup_or_bench[382]  1.0
        lineup[382]          single_lineup          1.00 budget_con           54.0
        lineup[399]          total_xp_obj         -17.80 lineup_or_bench[399]  1.0
        lineup[399]          single_lineup          1.00 budget_con           46.0
        lineup[404]          total_xp_obj          -1.00 lineup_or_bench[404]  1.0
        lineup[404]          single_lineup          1.00 budget_con           39.0
        lineup[416]          total_xp_obj          -3.30 lineup_or_bench[416]  1.0
        lineup[416]          single_lineup          1.00 budget_con           45.0
        lineup[436]          total_xp_obj         -15.60 lineup_or_bench[436]  1.0
        lineup[436]          single_lineup          1.00 budget_con           45.0
        lineup[448]          total_xp_obj         -15.20 lineup_or_bench[448]  1.0
        lineup[448]          single_lineup          1.00 budget_con           54.0
        lineup[449]          total_xp_obj          -4.40 lineup_or_bench[449]  1.0
        lineup[449]          single_lineup          1.00 budget_con           39.0
        lineup[476]          total_xp_obj         -17.20 lineup_or_bench[476]  1.0
        lineup[476]          single_lineup          1.00 budget_con           50.0
        lineup[490]          total_xp_obj          -0.90 lineup_or_bench[490]  1.0
        lineup[490]          single_lineup          1.00 budget_con           43.0
        lineup[502]          total_xp_obj         -21.60 lineup_or_bench[502]  1.0
        lineup[502]          single_lineup          1.00 budget_con           50.0
        bench[11]            total_xp_obj          -2.10 lineup_or_bench[11]   1.0
        bench[11]            single_bench           1.00 budget_con           49.0
        bench[24]            total_xp_obj          -1.59 lineup_or_bench[24]   1.0
        bench[24]            single_bench           1.00 budget_con           49.0
        bench[27]            total_xp_obj          -0.23 lineup_or_bench[27]   1.0
        bench[27]            single_bench           1.00 budget_con           39.0
        bench[60]            total_xp_obj          -0.60 lineup_or_bench[60]   1.0
        bench[60]            single_bench           1.00 budget_con           42.0
        bench[68]            total_xp_obj          -1.04 lineup_or_bench[68]   1.0
        bench[68]            single_bench           1.00 budget_con           45.0
        bench[78]            total_xp_obj          -2.27 lineup_or_bench[78]   1.0
        bench[78]            single_bench           1.00 budget_con           48.0
        bench[101]           total_xp_obj          -0.15 lineup_or_bench[101]  1.0
        bench[101]           single_bench           1.00 budget_con           39.0
        bench[108]           total_xp_obj          -1.76 lineup_or_bench[108]  1.0
        bench[108]           single_bench           1.00 budget_con           46.0
        bench[129]           total_xp_obj          -1.79 lineup_or_bench[129]  1.0
        bench[129]           single_bench           1.00 budget_con           47.0
        bench[139]           total_xp_obj          -0.48 lineup_or_bench[139]  1.0
        bench[139]           single_bench           1.00 budget_con           48.0
        bench[156]           total_xp_obj          -2.14 lineup_or_bench[156]  1.0
        bench[156]           single_bench           1.00 budget_con           44.0
        bench[180]           total_xp_obj          -0.23 lineup_or_bench[180]  1.0
        bench[180]           single_bench           1.00 budget_con           39.0
        bench[185]           total_xp_obj          -1.75 lineup_or_bench[185]  1.0
        bench[185]           single_bench           1.00 budget_con           44.0
        bench[206]           total_xp_obj          -2.24 lineup_or_bench[206]  1.0
        bench[206]           single_bench           1.00 budget_con           45.0
        bench[217]           total_xp_obj          -0.16 lineup_or_bench[217]  1.0
        bench[217]           single_bench           1.00 budget_con           43.0
        bench[237]           total_xp_obj          -2.22 lineup_or_bench[237]  1.0
        bench[237]           single_bench           1.00 budget_con           40.0
        bench[271]           total_xp_obj          -1.78 lineup_or_bench[271]  1.0
        bench[271]           single_bench           1.00 budget_con           45.0
        bench[294]           total_xp_obj          -2.17 lineup_or_bench[294]  1.0
        bench[294]           single_bench           1.00 budget_con           54.0
        bench[321]           total_xp_obj          -1.70 lineup_or_bench[321]  1.0
        bench[321]           single_bench           1.00 budget_con           54.0
        bench[337]           total_xp_obj          -1.92 lineup_or_bench[337]  1.0
        bench[337]           single_bench           1.00 budget_con           50.0
        bench[364]           total_xp_obj          -0.20 lineup_or_bench[364]  1.0
        bench[364]           single_bench           1.00 budget_con           41.0
        bench[382]           total_xp_obj          -1.96 lineup_or_bench[382]  1.0
        bench[382]           single_bench           1.00 budget_con           54.0
        bench[399]           total_xp_obj          -1.78 lineup_or_bench[399]  1.0
        bench[399]           single_bench           1.00 budget_con           46.0
        bench[404]           total_xp_obj          -0.10 lineup_or_bench[404]  1.0
        bench[404]           single_bench           1.00 budget_con           39.0
        bench[416]           total_xp_obj          -0.33 lineup_or_bench[416]  1.0
        bench[416]           single_bench           1.00 budget_con           45.0
        bench[436]           total_xp_obj          -1.56 lineup_or_bench[436]  1.0
        bench[436]           single_bench           1.00 budget_con           45.0
        bench[448]           total_xp_obj          -1.52 lineup_or_bench[448]  1.0
        bench[448]           single_bench           1.00 budget_con           54.0
        bench[449]           total_xp_obj          -0.44 lineup_or_bench[449]  1.0
        bench[449]           single_bench           1.00 budget_con           39.0
        bench[476]           total_xp_obj          -1.72 lineup_or_bench[476]  1.0
        bench[476]           single_bench           1.00 budget_con           50.0
        bench[490]           total_xp_obj          -0.09 lineup_or_bench[490]  1.0
        bench[490]           single_bench           1.00 budget_con           43.0
        bench[502]           total_xp_obj          -2.16 lineup_or_bench[502]  1.0
        bench[502]           single_bench           1.00 budget_con           50.0
RHS                                                                               
        RHS                  lineup_or_bench[11]    1.00 lineup_or_bench[24]   1.0
        RHS                  lineup_or_bench[27]    1.00 lineup_or_bench[60]   1.0
        RHS                  lineup_or_bench[68]    1.00 lineup_or_bench[78]   1.0
        RHS                  lineup_or_bench[101]   1.00 lineup_or_bench[108]  1.0
        RHS                  lineup_or_bench[129]   1.00 lineup_or_bench[139]  1.0
        RHS                  lineup_or_bench[156]   1.00 lineup_or_bench[180]  1.0
        RHS                  lineup_or_bench[185]   1.00 lineup_or_bench[206]  1.0
        RHS                  lineup_or_bench[217]   1.00 lineup_or_bench[237]  1.0
        RHS                  lineup_or_bench[271]   1.00 lineup_or_bench[294]  1.0
        RHS                  lineup_or_bench[321]   1.00 lineup_or_bench[337]  1.0
        RHS                  lineup_or_bench[364]   1.00 lineup_or_bench[382]  1.0
        RHS                  lineup_or_bench[399]   1.00 lineup_or_bench[404]  1.0
        RHS                  lineup_or_bench[416]   1.00 lineup_or_bench[436]  1.0
        RHS                  lineup_or_bench[448]   1.00 lineup_or_bench[449]  1.0
        RHS                  lineup_or_bench[476]   1.00 lineup_or_bench[490]  1.0
        RHS                  lineup_or_bench[502]   1.00 single_lineup         1.0
        RHS                  single_bench           1.00 budget_con           88.0
RANGES                                                                            
BOUNDS                                                                            
 BV     BND                  lineup[11]             1.00                          
 BV     BND                  lineup[24]             1.00                          
 BV     BND                  lineup[27]             1.00                          
 BV     BND                  lineup[60]             1.00                          
 BV     BND                  lineup[68]             1.00                          
 BV     BND                  lineup[78]             1.00                          
 BV     BND                  lineup[101]            1.00                          
 BV     BND                  lineup[108]            1.00                          
 BV     BND                  lineup[129]            1.00                          
 BV     BND                  lineup[139]            1.00                          
 BV     BND                  lineup[156]            1.00                          
 BV     BND                  lineup[180]            1.00                          
 BV     BND                  lineup[185]            1.00                          
 BV     BND                  lineup[206]            1.00                          
 BV     BND                  lineup[217]            1.00                          
 BV     BND                  lineup[237]            1.00                          
 BV     BND                  lineup[271]            1.00                          
 BV     BND                  lineup[294]            1.00                          
 BV     BND                  lineup[321]            1.00                          
 BV     BND                  lineup[337]            1.00                          
 BV     BND                  lineup[364]            1.00                          
 BV     BND                  lineup[382]            1.00                          
 BV     BND                  lineup[399]            1.00                          
 BV     BND                  lineup[404]            1.00                          
 BV     BND                  lineup[416]            1.00                          
 BV     BND                  lineup[436]            1.00                          
 BV     BND                  lineup[448]            1.00                          
 BV     BND                  lineup[449]            1.00                          
 BV     BND                  lineup[476]            1.00                          
 BV     BND                  lineup[490]            1.00                          
 BV     BND                  lineup[502]            1.00                          
 BV     BND                  bench[11]              1.00                          
 BV     BND                  bench[24]              1.00                          
 BV     BND                  bench[27]              1.00                          
 BV     BND                  bench[60]              1.00                          
 BV     BND                  bench[68]              1.00                          
 BV     BND                  bench[78]              1.00                          
 BV     BND                  bench[101]             1.00                          
 BV     BND                  bench[108]             1.00                          
 BV     BND                  bench[129]             1.00                          
 BV     BND                  bench[139]             1.00                          
 BV     BND                  bench[156]             1.00                          
 BV     BND                  bench[180]             1.00                          
 BV     BND                  bench[185]             1.00                          
 BV     BND                  bench[206]             1.00                          
 BV     BND                  bench[217]             1.00                          
 BV     BND                  bench[237]             1.00                          
 BV     BND                  bench[271]             1.00                          
 BV     BND                  bench[294]             1.00                          
 BV     BND                  bench[321]             1.00                          
 BV     BND                  bench[337]             1.00                          
 BV     BND                  bench[364]             1.00                          
 BV     BND                  bench[382]             1.00                          
 BV     BND                  bench[399]             1.00                          
 BV     BND                  bench[404]             1.00                          
 BV     BND                  bench[416]             1.00                          
 BV     BND                  bench[436]             1.00                          
 BV     BND                  bench[448]             1.00                          
 BV     BND                  bench[449]             1.00                          
 BV     BND                  bench[476]             1.00                          
 BV     BND                  bench[490]             1.00                          
 BV     BND                  bench[502]             1.00                          
ENDATA                                                                            